 vasp.5.4.4.18Apr17-6-g9f103f2a35 (build Jul 11 2022 10:00:19) complex
 executed on             LinuxGNU date 2024.06.30  21:40:30

 INCAR:
 POTCAR:   PAW_PBE Mo 08Apr2002
 POTCAR:    PAW_PBE S 17Jan2003
 POTCAR:   PAW_PBE C 08Apr2002
 POTCAR:   PAW_PBE H 15Jun2001
 POTCAR:   PAW_PBE O 08Apr2002
 POTCAR:   PAW_PBE Mo 08Apr2002
   VRHFIN =Mo: 4p5s4d

   TITEL  = PAW_PBE Mo 08Apr2002
   POMASS =   95.940; ZVAL   =    6.000    mass and valenz
   ENMAX  =  224.584; ENMIN  =  168.438 eV
   QCUT   =   -4.063; QGAM   =    8.126    optimization parameters

   Description
     l     E      TYP  RCUT    TYP  RCUT
     2   .000     23  2.500
     2   .000     23  2.500
     0   .000     23  2.600
     0  1.000     23  2.600
     1   .400     23  2.750
     1  2.000     23  2.750
     3   .000      7   .000

 POTCAR:    PAW_PBE S 17Jan2003
   VRHFIN =S : s2p4

   TITEL  = PAW_PBE S 17Jan2003
   POMASS =   32.066; ZVAL   =    6.000    mass and valenz
   ENMAX  =  280.000; ENMIN  =  194.016 eV
   QCUT   =   -4.360; QGAM   =    8.721    optimization parameters

[...]

 POTCAR:   PAW_PBE C 08Apr2002
   VRHFIN =C: s2p2

[...]

 POTCAR:   PAW_PBE H 15Jun2001
   VRHFIN =H: ultrasoft test

   TITEL  = PAW_PBE H 15Jun2001
   POMASS =    1.000; ZVAL   =    1.000    mass and valenz
   ENMAX  =  250.000; ENMIN  =  200.000 eV
   QCUT   =   -5.749; QGAM   =   11.498    optimization parameters

[...]

 POTCAR:   PAW_PBE O 08Apr2002
   VRHFIN =O: s2p4

   TITEL  = PAW_PBE O 08Apr2002
   POMASS =   16.000; ZVAL   =    6.000    mass and valenz
   ENMAX  =  400.000; ENMIN  =  300.000 eV
   QCUT   =   -5.520; QGAM   =   11.041    optimization parameters

   Description
     l     E      TYP  RCUT    TYP  RCUT
     0   .000     23  1.200
     0  -.700     23  1.200
     1   .000     23  1.520
     1   .600     23  1.520
     2   .000      7  1.500

 Optimization of the real space projectors (new method)

 maximal supplied QI-value         = 13.61
 optimisation between [QCUT,QGAM] = [ 10.20, 20.41] = [ 29.16,116.64] Ry
 Optimized for a Real-space Cutoff    1.55 Angstroem

   l    n(q)    QCUT    max X(q) W(low)/X(q) W(high)/X(q)  e(spline)
   2      9    10.205     3.671    0.25E-04    0.16E-05    0.51E-07
   2      9    10.205    29.382    0.50E-03    0.10E-02    0.77E-06
   0      9    10.205    26.379    0.99E-05    0.67E-05    0.19E-07
   0      9    10.205    49.709    0.55E-04    0.43E-04    0.15E-06
   1      9    10.205     7.852    0.25E-04    0.64E-04    0.44E-07
   1      9    10.205    10.693    0.26E-03    0.25E-03    0.25E-06
 Optimization of the real space projectors (new method)

[...]

   l    n(q)    QCUT    max X(q) W(low)/X(q) W(high)/X(q)  e(spline)
   0      8     9.919     4.436    0.80E-04    0.66E-04    0.52E-07
   0      8     9.919    16.131    0.48E-03    0.23E-03    0.28E-06
   1      7     9.919     4.654    0.17E-03    0.75E-03    0.30E-06
 Optimization of the real space projectors (new method)

 maximal supplied QI-value         = 24.76
 optimisation between [QCUT,QGAM] = [ 10.15, 20.30] = [ 28.85,115.39] Ry
 Optimized for a Real-space Cutoff    1.30 Angstroem

   l    n(q)    QCUT    max X(q) W(low)/X(q) W(high)/X(q)  e(spline)
   0      8    10.150     4.192    0.55E-04    0.58E-04    0.78E-07
   0      8    10.150     8.473    0.46E-03    0.68E-03    0.23E-06
   1      7    10.150     2.474    0.11E-03    0.93E-04    0.33E-07
   1      7    10.150     3.912    0.46E-03    0.50E-03    0.15E-06
 PAW_PBE Mo 08Apr2002                   :
  PAW_PBE S 17Jan2003                   :
 PAW_PBE C 08Apr2002                    :
 PAW_PBE H 15Jun2001                    :
 PAW_PBE O 08Apr2002                    :

 POSCAR: PDB File
  positions in direct lattice
  velocities in cartesian coordinates
 exchange correlation table for  LEXCH =        8
   RHO(1)=    0.500       N(1)  =     2000
   RHO(2)=  100.500       N(2)  =     4000

 ion  position               nearest neighbor table
   1  0.083  0.084  0.260-  34 2.41  33 2.41  50 2.41  49 2.41  37 2.41  53 2.42   2 3.16   4 3.16
                             5 3.17  13 3.17   8 3.17  14 3.17
   2  0.333  0.084  0.260-  50 2.41  34 2.41  35 2.41  51 2.41  38 2.41  54 2.41   1 3.16   3 3.16
                            14 3.17   6 3.17   5 3.17  15 3.17
   3  0.583  0.084  0.260-  51 2.41  35 2.41  36 2.41  52 2.41  39 2.41  55 2.42   2 3.16   4 3.16
                             6 3.17  15 3.17   7 3.17  16 3.17
   4  0.833  0.084  0.260-  33 2.41  36 2.41  52 2.41  49 2.41  40 2.41  56 2.42   1 3.16   3 3.16
                             8 3.17  16 3.17   7 3.17  13 3.17
   5  0.083  0.334  0.260-  37 2.41  38 2.41  53 2.41  54 2.41  41 2.41  57 2.42   8 3.16   6 3.16
                            12 3.17   1 3.17   9 3.17   2 3.17
   6  0.333  0.334  0.260-  39 2.41  54 2.41  38 2.41  55 2.41  42 2.41  58 2.42   7 3.16   5 3.16
                            10 3.17   3 3.17   9 3.17   2 3.17
   7  0.583  0.334  0.260-  40 2.41  39 2.41  55 2.41  56 2.41  43 2.41  59 2.42   6 3.16   8 3.16
                            10 3.17  11 3.17   4 3.17   3 3.17
   8  0.833  0.334  0.260-  40 2.41  53 2.41  37 2.41  56 2.41  44 2.41  60 2.42   5 3.16   7 3.16
                            11 3.17   4 3.17  12 3.17   1 3.17
   9  0.083  0.584  0.260-  41 2.41  42 2.41  57 2.41  58 2.41  45 2.41  61 2.42  10 3.16  12 3.16
                            16 3.17   5 3.17   6 3.17  13 3.17
  10  0.333  0.584  0.260-  42 2.41  59 2.41  43 2.41  58 2.41  46 2.41  62 2.41   9 3.16  11 3.16
                             6 3.17  13 3.17   7 3.17  14 3.17
  11  0.583  0.584  0.260-  59 2.41  63 2.41  44 2.41  43 2.41  60 2.41  47 2.41  12 3.16  10 3.16
                             8 3.17  15 3.17   7 3.17  14 3.17
  12  0.833  0.584  0.260-  60 2.41  44 2.41  41 2.41  57 2.41  48 2.41  64 2.42  11 3.16   9 3.16
                             5 3.17   8 3.17  15 3.17  16 3.17
  13  0.083  0.834  0.260-  46 2.41  61 2.41  45 2.41  62 2.41  33 2.41  49 2.41  14 3.16  16 3.16
                            10 3.17   1 3.17   9 3.17   4 3.17
  14  0.333  0.834  0.260-  63 2.41  62 2.41  46 2.41  47 2.41  34 2.41  50 2.42  13 3.16  15 3.16
                             2 3.17  10 3.17  11 3.17   1 3.17
  15  0.583  0.834  0.260-  63 2.41  47 2.41  48 2.41  64 2.41  35 2.41  51 2.42  14 3.16  16 3.16
                            11 3.17   3 3.17  12 3.17   2 3.17
  16  0.833  0.834  0.260-  45 2.41  48 2.41  64 2.41  61 2.41  36 2.41  52 2.42  13 3.16  15 3.16
                             9 3.17   4 3.17  12 3.17   3 3.17
  17  0.000  0.000  0.053-  68 2.41  84 2.41  65 2.41  81 2.41  77 2.41  93 2.41  18 3.16  20 3.16
                            24 3.17  29 3.17  21 3.17  30 3.17
  18  0.250  0.000  0.053-  65 2.41  81 2.41  66 2.41  82 2.41  78 2.41  94 2.41  17 3.16  19 3.16
                            21 3.17  30 3.17  22 3.17  31 3.17
  19  0.500  0.000  0.053-  67 2.41  83 2.41  66 2.41  82 2.41  79 2.41  95 2.41  20 3.16  18 3.16
                            23 3.17  31 3.17  22 3.17  32 3.17
  20  0.750  0.000  0.053-  67 2.41  68 2.41  83 2.41  84 2.41  80 2.41  96 2.41  19 3.16  17 3.16
                            32 3.17  23 3.17  24 3.17  29 3.17
  21  0.000  0.250  0.053-  69 2.41  85 2.41  72 2.41  88 2.41  65 2.41  81 2.41  22 3.16  24 3.16
                            25 3.17  18 3.17  17 3.17  28 3.17
  22  0.250  0.250  0.053-  70 2.41  69 2.41  86 2.41  85 2.41  66 2.41  82 2.41  23 3.16  21 3.16
                            19 3.17  26 3.17  18 3.17  25 3.17
  23  0.500  0.250  0.053-  70 2.41  86 2.41  71 2.41  87 2.41  67 2.41  83 2.41  22 3.16  24 3.16
                            26 3.17  19 3.17  20 3.17  27 3.17
  24  0.750  0.250  0.053-  72 2.41  88 2.41  71 2.41  87 2.41  68 2.41  84 2.41  21 3.16  23 3.16
                            28 3.17  17 3.17  27 3.17  20 3.17
  25  0.000  0.500  0.053-  76 2.41  92 2.41  73 2.41  89 2.41  69 2.41  85 2.41  28 3.16  26 3.16
                            21 3.17  32 3.17  29 3.17  22 3.17
  26  0.250  0.500  0.053-  74 2.41  90 2.41  73 2.41  89 2.41  70 2.41  86 2.41  27 3.16  25 3.16
                            23 3.17  30 3.17  22 3.17  29 3.17
  27  0.500  0.500  0.053-  75 2.41  74 2.41  91 2.41  90 2.41  71 2.41  87 2.41  28 3.16  26 3.16
                            24 3.17  31 3.17  23 3.17  30 3.17
  28  0.750  0.500  0.053-  75 2.41  91 2.41  76 2.41  92 2.41  72 2.41  88 2.41  27 3.16  25 3.16
                            24 3.17  31 3.17  32 3.17  21 3.17
  29  0.000  0.750  0.053-  80 2.41  96 2.41  77 2.41  93 2.41  73 2.41  89 2.41  30 3.16  32 3.16
                            17 3.17  25 3.17  26 3.17  20 3.17
  30  0.250  0.750  0.053-  77 2.41  93 2.41  78 2.41  94 2.41  74 2.41  90 2.41  29 3.16  31 3.16
                            26 3.17  18 3.17  27 3.17  17 3.17
  31  0.500  0.750  0.053-  79 2.41  95 2.41  78 2.41  94 2.41  75 2.41  91 2.41  32 3.16  30 3.16
                            28 3.17  19 3.17  27 3.17  18 3.17
  32  0.750  0.750  0.053-  79 2.41  80 2.41  95 2.41  96 2.41  76 2.41  92 2.41  31 3.16  29 3.16
                            25 3.17  20 3.17  28 3.17  19 3.17
  33  1.000  0.000  0.207-   4 2.41   1 2.41  13 2.41
  34  0.250  0.000  0.207-   1 2.41   2 2.41  14 2.41
  35  0.500  0.000  0.207-   3 2.41   2 2.41  15 2.41
  36  0.750  0.000  0.207-   4 2.41   3 2.41  16 2.41
  37  1.000  0.250  0.207-   5 2.41   8 2.41   1 2.41
  38  0.250  0.250  0.207-   6 2.41   5 2.41   2 2.41
  39  0.500  0.250  0.207-   6 2.41   7 2.41   3 2.41
  40  0.750  0.250  0.207-   8 2.41   7 2.41   4 2.41
  41  1.000  0.500  0.207-   9 2.41  12 2.41   5 2.41
  42  0.250  0.500  0.207-  10 2.41   9 2.41   6 2.41
  43  0.500  0.500  0.207-  11 2.41  10 2.41   7 2.41
  44  0.750  0.500  0.207-  11 2.41  12 2.41   8 2.41
  45  1.000  0.750  0.207-  16 2.41  13 2.41   9 2.41
  46  0.250  0.750  0.207-  13 2.41  14 2.41  10 2.41
  47  0.500  0.750  0.207-  15 2.41  14 2.41  11 2.41
  48  0.750  0.750  0.207-  15 2.41  16 2.41  12 2.41
  49  1.000  0.000  0.312-   1 2.41   4 2.41  13 2.41
  50  0.250  0.000  0.312-   2 2.41   1 2.41  14 2.42
  51  0.500  0.000  0.312-   3 2.41   2 2.41  15 2.42
  52  0.750  0.000  0.312-   4 2.41   3 2.41  16 2.42
  53  1.000  0.250  0.312-   8 2.41   5 2.41   1 2.42
  54  0.250  0.250  0.312-   6 2.41   5 2.41   2 2.41
  55  0.500  0.250  0.312-   7 2.41   6 2.41   3 2.42
  56  0.750  0.250  0.312-   7 2.41   8 2.41   4 2.42
  57  1.000  0.500  0.312-  12 2.41   9 2.41   5 2.42
  58  0.250  0.500  0.312-  10 2.41   9 2.41   6 2.42
  59  0.500  0.501  0.312-  11 2.41  10 2.41   7 2.42
  60  0.750  0.500  0.312-  12 2.41  11 2.41   8 2.42
  61  0.000  0.750  0.312-  13 2.41  16 2.41   9 2.42
  62  0.250  0.750  0.312-  14 2.41  13 2.41  10 2.41
  63  0.500  0.750  0.312-  15 2.41  14 2.41  11 2.41
  64  0.750  0.750  0.312-  16 2.41  15 2.41  12 2.42
  65  0.083  0.084  0.001-  18 2.41  17 2.41  21 2.41
  66  0.333  0.084  0.001-  19 2.41  18 2.41  22 2.41
  67  0.583  0.084  0.001-  19 2.41  20 2.41  23 2.41
  68  0.833  0.084  0.001-  17 2.41  20 2.41  24 2.41
  69  0.083  0.334  0.001-  21 2.41  22 2.41  25 2.41
  70  0.333  0.334  0.001-  23 2.41  22 2.41  26 2.41
[...]
   -.819E-01 0.506E+00 0.700E+03   0.869E-01 -.505E+00 -.700E+03   0.796E-02 0.212E-03 -.595E-02   -.219E-02 0.344E-02 0.613E-02
   0.873E+00 0.428E+00 0.701E+03   -.871E+00 -.429E+00 -.701E+03   -.587E-02 0.687E-03 -.595E-02   -.345E-02 0.574E-02 0.578E-02
   -.979E-02 0.274E+00 0.701E+03   0.797E-02 -.279E+00 -.701E+03   0.154E-02 0.462E-02 -.101E-01   0.199E-02 0.749E-02 0.630E-02
   -.823E+00 0.404E+00 0.701E+03   0.823E+00 -.405E+00 -.701E+03   0.950E-02 0.218E-02 -.598E-02   0.190E-02 0.596E-02 0.638E-02
   0.300E+00 0.388E+00 0.700E+03   -.299E+00 -.384E+00 -.700E+03   0.887E-02 0.197E-02 -.584E-02   0.267E-02 0.116E-02 0.708E-02
   0.226E+00 -.148E+00 0.700E+03   -.223E+00 0.149E+00 -.700E+03   0.816E-02 0.101E-02 -.601E-02   -.406E-03 0.442E-02 0.691E-02
   -.238E+00 -.168E+00 0.700E+03   0.233E+00 0.170E+00 -.700E+03   -.385E-02 0.215E-02 -.600E-02   0.219E-02 0.360E-02 0.706E-02
   -.305E+00 0.317E+00 0.700E+03   0.307E+00 -.309E+00 -.700E+03   0.165E-02 0.284E-02 -.588E-02   -.262E-02 -.100E-02 0.715E-02
   -.195E+01 0.177E+01 -.961E+02   0.196E+01 -.175E+01 0.914E+02   0.436E-02 -.177E-01 0.478E+01   -.197E-02 -.597E-02 0.250E-01
   0.551E-01 -.415E+01 -.977E+02   -.527E-01 0.415E+01 0.931E+02   0.490E-02 -.594E-03 0.477E+01   -.168E-02 -.626E-02 0.259E-01
   0.203E+01 0.203E+01 -.958E+02   -.204E+01 -.202E+01 0.912E+02   -.164E-02 -.158E-01 0.477E+01   0.101E-02 -.726E-02 0.252E-01
   -.112E+00 0.806E+01 -.933E+02   0.112E+00 -.808E+01 0.886E+02   0.640E-03 0.459E-01 0.477E+01   0.198E-02 -.104E-01 0.301E-01
   -.592E+01 0.273E+01 -.966E+02   0.592E+01 -.273E+01 0.920E+02   -.112E-01 0.106E-01 0.477E+01   -.133E-02 0.127E-03 0.274E-01
   0.627E+01 0.277E+01 -.963E+02   -.627E+01 -.277E+01 0.916E+02   0.102E-01 0.141E-01 0.478E+01   -.126E-02 -.172E-03 0.273E-01
   0.669E+01 0.831E+01 -.812E+02   -.674E+01 -.829E+01 0.766E+02   0.643E-01 -.290E-01 0.475E+01   0.507E-03 -.228E-02 0.277E-01
   -.702E+01 0.827E+01 -.817E+02   0.707E+01 -.825E+01 0.770E+02   -.624E-01 -.241E-01 0.475E+01   0.216E-02 -.122E-02 0.270E-01
   0.222E+00 -.593E-01 -.979E+02   -.221E+00 0.561E-01 0.932E+02   -.293E-02 -.593E-02 0.477E+01   -.180E-02 0.898E-02 0.282E-01
   0.113E+02 -.128E+01 -.855E+02   -.113E+02 0.129E+01 0.808E+02   -.111E-01 -.275E-01 0.478E+01   -.161E-02 0.670E-02 0.269E-01
   -.195E+00 -.254E+01 -.718E+02   0.187E+00 0.256E+01 0.671E+02   0.149E-02 -.110E-01 0.477E+01   0.451E-02 0.809E-02 0.242E-01
   -.113E+02 -.113E+01 -.859E+02   0.113E+02 0.113E+01 0.813E+02   0.177E-01 -.257E-01 0.478E+01   0.163E-02 0.604E-02 0.269E-01
   0.421E+01 -.124E+01 -.971E+02   -.420E+01 0.125E+01 0.924E+02   -.253E-04 -.126E-01 0.477E+01   -.455E-02 0.190E-02 0.288E-01
   0.462E+01 -.891E+01 -.870E+02   -.461E+01 0.893E+01 0.824E+02   -.162E-02 -.211E-01 0.476E+01   0.142E-02 0.210E-02 0.247E-01
   -.469E+01 -.878E+01 -.870E+02   0.468E+01 0.881E+01 0.823E+02   0.735E-02 -.183E-01 0.475E+01   -.165E-02 -.777E-03 0.225E-01
   -.413E+01 -.109E+01 -.972E+02   0.413E+01 0.110E+01 0.925E+02   0.960E-02 -.714E-02 0.478E+01   0.378E-02 -.746E-03 0.295E-01
   -.998E+01 0.754E+01 -.106E+04   0.100E+02 -.754E+01 0.107E+04   -.167E-01 0.568E-02 -.438E+01   -.412E-02 -.285E-02 0.416E-02
   0.258E+00 -.215E+02 -.107E+04   -.253E+00 0.215E+02 0.107E+04   -.414E-02 0.142E-01 -.442E+01   -.222E-02 -.133E-02 -.286E-02
   0.107E+02 0.950E+01 -.106E+04   -.108E+02 -.952E+01 0.107E+04   0.442E-02 -.989E-02 -.436E+01   0.593E-02 0.282E-02 0.238E-02
   -.941E+00 0.454E+02 -.105E+04   0.949E+00 -.456E+02 0.105E+04   -.743E-02 0.275E+00 -.377E+01   0.130E-02 0.272E-03 0.717E-02
   -.283E+02 0.119E+02 -.106E+04   0.283E+02 -.119E+02 0.107E+04   0.369E-01 -.213E-01 -.439E+01   -.105E-02 -.885E-03 0.384E-03
   0.303E+02 0.122E+02 -.106E+04   -.303E+02 -.122E+02 0.107E+04   -.433E-01 -.567E-02 -.437E+01   0.263E-02 0.569E-05 0.730E-02
   0.516E+02 0.500E+02 -.976E+03   -.518E+02 -.500E+02 0.979E+03   0.390E+00 -.172E+00 -.320E+01   0.779E-02 -.334E-02 0.199E-01
   -.530E+02 0.498E+02 -.980E+03   0.532E+02 -.498E+02 0.984E+03   -.339E+00 -.137E+00 -.341E+01   -.851E-02 -.361E-02 0.168E-01
   0.911E+00 -.101E+01 -.107E+04   -.912E+00 0.102E+01 0.107E+04   0.579E-02 -.681E-02 -.445E+01   -.246E-03 0.696E-02 -.255E-03
   0.701E+02 -.762E+01 -.101E+04   -.701E+02 0.763E+01 0.101E+04   -.765E-02 0.178E-01 -.436E+01   0.126E-02 0.301E-02 0.624E-02
   -.145E+01 -.176E+02 -.903E+03   0.144E+01 0.177E+02 0.908E+03   -.303E-01 -.766E-01 -.503E+01   -.145E-03 -.344E-02 0.972E-02
   -.694E+02 -.673E+01 -.101E+04   0.694E+02 0.674E+01 0.101E+04   -.852E-02 0.631E-02 -.435E+01   0.222E-02 0.942E-03 -.180E-02
[...]
   0.617E+00 0.332E+02 -.734E+03   -.336E+00 -.195E+02 0.733E+03   -.206E+00 -.103E+02 -.230E+00   0.259E-03 -.193E-01 0.195E-02
   -.176E+03 0.400E+02 -.728E+03   0.178E+03 -.397E+02 0.728E+03   -.239E+01 -.783E+00 0.528E+00   -.905E-02 -.115E-01 0.499E-02
   -.158E+03 -.104E+03 -.726E+03   0.160E+03 0.105E+03 0.726E+03   -.142E+01 -.184E+01 0.459E+00   -.463E-02 -.753E-02 0.480E-02
   -.362E+01 -.189E+03 -.727E+03   0.366E+01 0.191E+03 0.726E+03   -.402E-01 -.196E+01 0.379E+00   -.483E-03 -.628E-02 0.291E-02
   0.154E+03 -.110E+03 -.727E+03   -.155E+03 0.112E+03 0.727E+03   0.134E+01 -.187E+01 0.424E+00   0.204E-02 -.576E-02 0.156E-02
   0.177E+03 0.331E+02 -.729E+03   -.179E+03 -.328E+02 0.729E+03   0.236E+01 -.882E+00 0.478E+00   0.761E-02 -.121E-01 0.183E-02
   -.754E+02 0.333E+02 -.182E+03   0.805E+02 -.363E+02 0.182E+03   -.496E+01 0.305E+01 0.685E-01   -.273E-02 -.187E-02 0.117E-02
   -.690E+02 -.398E+02 -.181E+03   0.741E+02 0.425E+02 0.181E+03   -.511E+01 -.282E+01 0.226E+00   -.512E-03 -.895E-03 0.978E-03
   -.152E+01 -.790E+02 -.181E+03   0.163E+01 0.848E+02 0.181E+03   -.113E+00 -.586E+01 0.250E+00   -.228E-03 -.835E-03 0.666E-03
   0.675E+02 -.425E+02 -.182E+03   -.724E+02 0.454E+02 0.181E+03   0.500E+01 -.302E+01 0.125E+00   0.284E-03 -.755E-03 0.271E-03
   0.767E+02 0.304E+02 -.182E+03   -.818E+02 -.332E+02 0.182E+03   0.508E+01 0.285E+01 -.288E-01   0.228E-02 -.189E-02 0.523E-03
   -.360E-01 0.606E+02 -.257E+03   0.846E-01 -.645E+02 0.265E+03   -.447E-01 0.260E+01 -.801E+01   0.245E-03 0.108E-02 -.511E-02
   0.397E+00 0.706E+02 -.106E+03   -.432E+00 -.768E+02 0.940E+02   0.802E-02 0.396E+01 0.864E+01   0.246E-03 0.152E-02 0.482E-02
   0.617E+01 0.275E+03 -.109E+04   -.731E+01 -.278E+03 0.109E+04   0.111E+01 0.387E+01 0.304E+01   0.510E-02 -.191E-01 0.160E-03
   -.607E+00 0.131E+02 -.177E+02   0.444E-14 -.114E-12 -.819E-11   0.652E+00 -.131E+02 0.168E+02   0.184E-02 -.881E-01 0.108E+01

 POSITION                                       TOTAL-FORCE (eV/Angst)
      1.58000      0.92200      7.79200        -0.022800      0.004588      0.037966
      4.73900      0.92200      7.79200         0.028830      0.002057      0.021104
      7.89800      0.92200      7.79200         0.032288     -0.013440      0.013974
     11.05800      0.92200      7.79200        -0.017936     -0.024880      0.028246
      3.15900      3.67300      7.79200         0.007303      0.013091      0.031308
      6.31900      3.67300      7.79200        -0.043175      0.039801     -0.026709
      9.47800      3.67300      7.79200         0.006410      0.026206     -0.012336
     12.63700      3.67300      7.79200         0.039973      0.040570     -0.019509
      4.73900      6.42400      7.79200        -0.007487      0.001282      0.031985
      7.89800      6.42400      7.79200         0.012753     -0.048062      0.046735
     11.05800      6.42400      7.79200         0.000253     -0.069120     -0.000293
     14.21700      6.42400      7.79200         0.019323      0.005477      0.012571
      6.31900      9.17500      7.79200        -0.040867     -0.002476      0.018878
      9.47800      9.17500      7.79200        -0.018291      0.007896     -0.005526
     12.63700      9.17500      7.79200         0.057291      0.009246     -0.003445
     15.79700      9.17500      7.79200        -0.012294     -0.046583      0.001520
      0.00000      0.00000      1.59600         0.015094      0.002053      0.018303
      3.15900      0.00000      1.59600         0.015469      0.001449      0.025020
      6.31900      0.00000      1.59600        -0.006408      0.001197      0.018266
      9.47800      0.00000      1.59600         0.005422      0.010572      0.026600
      1.58000      2.75100      1.59600        -0.007514      0.005517      0.024739
      4.73900      2.75100      1.59600         0.001186      0.010523      0.024609
      7.89800      2.75100      1.59600         0.016514      0.003323      0.027034
     11.05800      2.75100      1.59600        -0.013686      0.004189      0.026917
      3.15900      5.50200      1.59600         0.010331      0.005603      0.024381
      6.31900      5.50200      1.59600        -0.008150      0.006081      0.025069
      9.47800      5.50200      1.59600         0.001296      0.007714      0.018142
     12.63700      5.50200      1.59600         0.010349      0.007366      0.025154
      4.73900      8.25300      1.59600         0.011777      0.008162      0.024893
      7.89800      8.25300      1.59600         0.010649      0.007382      0.024972
     11.05800      8.25300      1.59600        -0.006652      0.008577      0.025021
     14.21700      8.25300      1.59600         0.001258      0.010670      0.024882
     12.63700      0.00300      6.22000         0.014486     -0.005954      0.136660
      3.15900      0.00300      6.22000         0.005231     -0.004985      0.132875
      6.31900      0.00300      6.22000        -0.012461     -0.004749      0.132666
      9.47800      0.00300      6.22000         0.002054      0.011957      0.117750
     14.21700      2.75400      6.22000        -0.008284      0.012104      0.136788
      4.73900      2.75400      6.22000         0.006664      0.014232      0.138414
      7.89800      2.75400      6.22000         0.016050     -0.002723      0.110170
     11.05800      2.75400      6.22000        -0.014340     -0.000943      0.111993
     15.79700      5.50500      6.22000        -0.004204      0.000288      0.142400
      6.31900      5.50500      6.22000        -0.011953     -0.010286      0.137843
      9.47800      5.50500      6.22000        -0.002347      0.010205      0.127961
     12.63700      5.50500      6.22000         0.017519     -0.011192      0.134084
     17.37600      8.25600      6.22000        -0.000736     -0.004408      0.139334
      7.89800      8.25600      6.22000         0.008670     -0.000718      0.133707
     11.05800      8.25600      6.22000        -0.005855      0.002656      0.123893
     14.21700      8.25600      6.22000         0.009278     -0.001418      0.141308
     12.63800      0.00200      9.36600         0.019051     -0.000922     -0.193967
      3.16000      0.00300      9.36500        -0.001681      0.004251     -0.186795
      6.32000      0.00400      9.36500        -0.039785     -0.024720     -0.179811
      9.47800      0.00300      9.36500         0.000644      0.137271     -0.068579
     14.21600      2.75500      9.36500         0.029989     -0.009330     -0.181702
      4.74000      2.75400      9.36400        -0.040202      0.004471     -0.171079
      7.89900      2.75400      9.36600         0.193371     -0.104257     -0.002652
     11.05700      2.75400      9.36600        -0.160777     -0.090404     -0.032158
     15.79600      5.50500      9.36600         0.004783      0.006537     -0.208333
      6.31900      5.50500      9.36600        -0.031761      0.033736     -0.200339
      9.48000      5.50800      9.36300        -0.041122     -0.052150     -0.541426
     12.63800      5.50600      9.36500         0.020382      0.018942     -0.185199
[...]
     15.79700      9.17200      3.16800        -0.008081     -0.001421     -0.132752
      9.41000      4.08000     12.46100         0.075220      3.483996     -0.406325
     10.63600      4.75000     12.41500         0.058323     -0.548985      0.073980
     10.65900      6.14600     12.36400        -0.063586      0.019191      0.186858
      9.46400      6.87100     12.35400        -0.002214     -0.210709      0.112793
      8.24200      6.19300     12.38700         0.066801      0.056238      0.168140
      8.21100      4.79800     12.43800        -0.073413     -0.571043      0.052883
     11.55900      4.16700     12.41200         0.061379      0.081671     -0.081497
     11.61700      6.66900     12.32900        -0.035318     -0.083977     -0.062289
      9.48500      7.96100     12.31400        -0.001895     -0.030261     -0.069990
      7.30500      6.75400     12.37100         0.033833     -0.090407     -0.063520
      7.26600      4.25200     12.45300        -0.065958      0.077096     -0.080768
      9.38800      2.35400     13.36700         0.003772     -1.380171      0.199818
      9.38200      2.27400     11.60900        -0.027515     -2.209808     -3.034720
      9.38200      2.68400     12.45200        -0.029562      1.461732      2.754956
    total drift:                                0.046890     -0.038452      0.201998

  FREE ENERGIE OF THE ION-ELECTRON SYSTEM (eV)
  free  energy   TOTEN  =      -816.49155008 eV

  energy  without entropy=     -816.27330749  energy(sigma->0) =     -816.38242878

 writing wavefunctions

 total charge

[...]

 magnetization (x)

# of ion       s       p       d       tot
    1       -0.000   0.000   0.000   0.000
    2       -0.000   0.000   0.000   0.000
    3       -0.000  -0.000  -0.000  -0.000
    4       -0.000  -0.000  -0.000  -0.000
    5       -0.000   0.000  -0.000  -0.000
    6       -0.000  -0.000  -0.000  -0.000
    7       -0.000  -0.000  -0.000  -0.000
    8       -0.000  -0.000  -0.000  -0.000
    9       -0.000   0.000  -0.000  -0.000
   10        0.000   0.000   0.000   0.000
   11        0.000   0.000   0.000   0.000
   12       -0.000   0.000  -0.000  -0.000
   13        0.000   0.000   0.000   0.000
   14       -0.000  -0.000  -0.000  -0.000
   15       -0.000   0.000   0.000   0.000
   16       -0.000  -0.000  -0.000  -0.000
   17        0.000   0.000   0.000   0.000
   18        0.000   0.000   0.000   0.000
   19        0.000   0.000   0.000   0.000
   20       -0.000   0.000   0.000   0.000
   21       -0.000   0.000   0.000   0.000
   22       -0.000   0.000   0.000   0.000
   23       -0.000   0.000   0.000   0.000
   24       -0.000   0.000   0.000   0.000
   25        0.000   0.000   0.000   0.000
   26       -0.000   0.000   0.000   0.000
   27        0.000   0.000   0.000   0.000
   28       -0.000   0.000   0.000   0.000
   29        0.000   0.000   0.000   0.000
   30        0.000   0.000   0.000   0.000
   31        0.000   0.000   0.000   0.000
   32        0.000   0.000   0.000   0.000
   33       -0.000  -0.000   0.000  -0.000
   34       -0.000  -0.000   0.000  -0.000
   35       -0.000  -0.000   0.000  -0.000
   36       -0.000  -0.000   0.000  -0.000
   37        0.000  -0.000   0.000  -0.000
   38        0.000  -0.000   0.000  -0.000
   39        0.000  -0.000   0.000  -0.000
   40        0.000  -0.000   0.000  -0.000
   41       -0.000   0.000   0.000   0.000
   42        0.000  -0.000   0.000  -0.000
   43        0.000  -0.000   0.000  -0.000
   44        0.000  -0.000   0.000  -0.000
   45        0.000  -0.000   0.000  -0.000
   46       -0.000  -0.000   0.000  -0.000
   47       -0.000  -0.000   0.000  -0.000
   48        0.000  -0.000   0.000  -0.000
   49       -0.000  -0.000   0.000  -0.000
   50       -0.000   0.000   0.000  -0.000
   51       -0.000  -0.000   0.000  -0.000
   52       -0.000  -0.000   0.000  -0.000
   53       -0.000  -0.000   0.000  -0.000
   54       -0.000  -0.000   0.000  -0.000
   55       -0.000   0.000   0.000  -0.000
   56       -0.000   0.000   0.000  -0.000
   57       -0.000  -0.000   0.000  -0.000
   58       -0.000  -0.000   0.000  -0.000
   59       -0.000  -0.000   0.000  -0.000
   60       -0.000  -0.000   0.000  -0.000
[...]
   96        0.000  -0.000   0.000  -0.000
   97       -0.000  -0.000   0.000  -0.000
   98       -0.000  -0.000   0.000  -0.000
   99       -0.000  -0.000   0.000  -0.000
  100       -0.000  -0.000   0.000  -0.000
  101       -0.000  -0.000   0.000  -0.000
  102       -0.000  -0.000   0.000  -0.000
  103       -0.000  -0.000   0.000  -0.000
  104       -0.000  -0.000   0.000  -0.000
  105        0.000  -0.000   0.000  -0.000
  106       -0.000  -0.000   0.000  -0.000
  107       -0.000  -0.000   0.000  -0.000
  108       -0.000  -0.000   0.000  -0.000
  109       -0.000  -0.000   0.000  -0.000
  110       -0.000   0.000   0.000  -0.000
tot         -0.000  -0.000  -0.000  -0.000